SumColouring/JavaBacktracker/RandomInstances/32_0.20_1.col
c File: instances/32_0.20_1.col
c
c Description: Random graph of size 32 vertices and P(0.2) of edges between any two vertices.
p col 32 496
e 1 2
e 1 13
e 1 14
e 1 20
e 1 25
e 2 8
e 2 11
e 2 12
e 2 16
e 2 26
e 2 27
e 3 5
e 3 15
e 3 16
e 3 17
e 3 18
e 3 19
e 3 24
e 3 25
e 3 28
e 4 12
e 4 15
e 4 22
e 4 26
e 4 30
e 4 31
e 5 17
e 5 21
e 5 24
e 5 30
e 6 11
e 6 15
e 6 28
e 6 29
e 7 11
e 7 15
e 7 16
e 7 20
e 7 22
e 7 25
e 7 28
e 7 29
e 8 10
e 8 15
e 8 19
e 9 10
e 9 14
e 9 16
e 9 21
e 9 28
e 10 13
e 10 16
e 10 17
e 10 18
e 10 20
e 10 28
e 11 12
e 11 21
e 11 22
e 11 23
e 11 25
e 11 26
e 11 32
e 12 23
e 12 24
e 12 29
e 12 32
e 13 15
e 13 32
e 14 18
e 14 21
e 14 23
e 14 24
e 14 27
e 14 28
e 15 21
e 15 22
e 15 24
e 15 26
e 15 29
e 16 18
e 16 20
e 16 21
e 16 22
e 16 27
e 17 18
e 17 32
e 18 20
e 18 27
e 19 20
e 19 21
e 19 23
e 19 31
e 19 32
e 20 24
e 20 29
e 21 26
e 21 28
e 23 26
e 23 27
e 23 30
e 24 28
e 24 31
e 24 32
e 25 27
e 25 32
e 27 28
e 28 29
e 29 31
e 31 32